p cnf 15 21
-15 14 8 0
15 -14 3 0
15 -14 2 0
-15 11 5 0
15 9 -5 0
-15 8 -3 0
-15 2 -1 0
14 -10 -5 0
-14 8 4 0
13 12 2 0
13 -11 -8 0
-13 -8 4 0
13 -4 1 0
-12 10 -3 0
12 -7 -2 0
-11 9 8 0
11 7 -6 0
-11 5 -4 0
-10 -5 -1 0
9 5 3 0
4 -3 2 0
